Timesteps: 1
s UNSATISFIABLE
real 0.31
user 0.03
sys 0.00
Timesteps: 2
s UNSATISFIABLE
real 0.38
user 0.07
sys 0.01
Timesteps: 3
s UNSATISFIABLE
real 0.34
user 0.13
sys 0.01
Timesteps: 4
s UNSATISFIABLE
real 0.40
user 0.23
sys 0.01
Timesteps: 5
s UNSATISFIABLE
real 0.72
user 0.44
sys 0.02
Timesteps: 6
s UNSATISFIABLE
real 1.08
user 0.81
sys 0.03
Timesteps: 7
s UNSATISFIABLE
real 1.97
user 1.66
sys 0.03
Timesteps: 8
s UNSATISFIABLE
real 9.10
user 8.24
sys 0.05
Timesteps: 9
s UNSATISFIABLE
real 18.72
user 17.68
sys 0.05
Timesteps: 10
s UNSATISFIABLE
real 25.94
user 24.74
sys 0.08
Timesteps: 11
s UNSATISFIABLE
real 38.12
user 36.78
sys 0.08
Timesteps: 12
s UNSATISFIABLE
real 30.25
user 28.96
sys 0.08
Timesteps: 13
s UNSATISFIABLE
real 32.12
user 30.68
sys 0.12
Timesteps: 14
s UNSATISFIABLE
real 73.91
user 72.90
sys 0.15
Timesteps: 15
s UNSATISFIABLE
real 33.12
user 31.96
sys 0.11
Timesteps: 16
s UNSATISFIABLE
real 33.90
user 33.03
sys 0.13
Timesteps: 17
s UNSATISFIABLE
real 40.74
user 39.84
sys 0.12
Timesteps: 18
s UNSATISFIABLE
real 81.39
user 80.22
sys 0.19
Timesteps: 19
s UNSATISFIABLE
real 79.27
user 78.04
sys 0.21
Timesteps: 20
s UNSATISFIABLE
real 80.09
user 78.84
sys 0.20
Timesteps: 21
s UNSATISFIABLE
real 207.98
user 206.09
sys 0.30
Timesteps: 22
s UNSATISFIABLE
real 177.97
user 176.21
sys 0.28
Timesteps: 23
s UNSATISFIABLE
real 146.22
user 144.53
sys 0.26
Timesteps: 24
s UNSATISFIABLE
real 183.34
user 181.44
sys 0.31
Timesteps: 25
s UNSATISFIABLE
real 883.24
user 878.09
sys 0.74
Timesteps: 26
s UNSATISFIABLE
real 550.23
user 546.70
sys 0.51
Timesteps: 27
s UNSATISFIABLE
real 675.09
user 670.93
sys 0.65
Timesteps: 28
